molecule mol {
  1 2
  O 
  H 1 0.96
  H 1 0.96 2 104.5
}
set e_convergence 13
set d_convergence 13
set r_convergence 13
set maxiter       100
set basis         cc-pvdz
set reference     uhf
set scf_type      pk
Escf, scfwfn  = energy('scf', return_wfn=True)

# call my python module
# note: you need meinsum/ in your PYTHONPATH to run this
# grep "@CCSD" to see results

from meinsum.examples.ccsd.ccsd_diis import SpinOrbCCSD

basisname = psi4.get_global_option("BASIS")
basisset  = psi4.BasisSet.pyconstruct_orbital(mol, "BASIS", basisname)
mints     = psi4.MintsHelper(basisset)
ccsd      = SpinOrbCCSD(scfwfn, mints)
ccsd.ccsd_energy()

Eccsd = energy('ccsd')
psi4.print_out("\n@CCSD   {:20.15f}".format(Eccsd-Escf))
