molecule {
  0 1
  N
  N 1 1.0
}
set e_convergence 13
set d_convergence 13
set r_convergence 13
set maxiter       100
set basis         dzp
set scf_type      pk
Escf  = energy('scf')

# call my python module
# note: you need meinsum/ in your PYTHONPATH to run this
# grep "@CCSD" to see results

from theory.ccsd.ccsd import SpinOrbCCSD

scfwfn = psi4.wavefunction()
mints  = psi4.MintsHelper()
ccsd  = SpinOrbCCSD(scfwfn, mints)
ccsd.ccsd_energy()

Ecorr = energy('ccsd')
psi4.print_out("\n@CCSD   {:20.15f}".format(Ecorr-Escf))
