molecule {
  1 2
  O 
  H 1 0.96
  H 1 0.96 2 104.5
}
set e_convergence 13
set d_convergence 13
set r_convergence 13
set maxiter       100
set basis         sto-3g
set reference     uhf
set scf_type      pk
Escf  = energy('scf')

# call my python module
# note: you need meinsum/ in your PYTHONPATH to run this
# grep "@CCSD[T]" to see results

from theory.ccsdt.brackets import SpinOrbCCSDbT

scfwfn  = psi4.wavefunction()
mints   = psi4.MintsHelper()
ccsdbt  = SpinOrbCCSDbT(scfwfn, mints)
ccsdbt.ccsdbt_energy()

# psi4 doesn't print this -- hope it's right
