molecule {
  1 2
  O 
  H 1 0.96
  H 1 0.96 2 104.5
}
set e_convergence 13
set d_convergence 13
set r_convergence 13
set maxiter       100
set basis         sto-3g
set reference     uhf
set scf_type      pk
energy('scf')

# call my python module
# note: you need meinsum/ in your PYTHONPATH to run this
# grep "@CCD" to see results

from examples.ccd.ccd_diis import SpinOrbCCD

scfwfn = psi4.wavefunction()
mints  = psi4.MintsHelper()
ccd    = SpinOrbCCD(scfwfn, mints)
ccd.ccd_energy()
